Version identifier: 22.1.1.0 | 2022-11-28 | 9160aff4d
CPXPARAM_ClockType                               1
CPXPARAM_Read_DataCheck                          1
CPXPARAM_Threads                                 1
CPXPARAM_TimeLimit                               7200
CPXPARAM_MIP_Tolerances_AbsMIPGap                0
CPXPARAM_MIP_Tolerances_MIPGap                   0
CPXPARAM_MIP_Tolerances_Integrality              0
Tried aggregator 3 times.
MIP Presolve eliminated 34677 rows and 3030 columns.
MIP Presolve modified 12480 coefficients.
Aggregator did 7380 substitutions.
Reduced MIP has 104285 rows, 21300 columns, and 327460 nonzeros.
Reduced MIP has 21300 binaries, 0 generals, 0 SOSs, and 0 indicators.
Presolve time = 0.67 sec. (438.87 ticks)
Probing time = 0.02 sec. (9.70 ticks)
Tried aggregator 1 time.
Detecting symmetries...
MIP Presolve eliminated 150 rows and 0 columns.
Reduced MIP has 104135 rows, 21300 columns, and 326880 nonzeros.
Reduced MIP has 21300 binaries, 0 generals, 0 SOSs, and 0 indicators.
Presolve time = 0.40 sec. (256.38 ticks)
Probing time = 0.01 sec. (9.68 ticks)
Clique table members: 5385.
MIP emphasis: balance optimality and feasibility.
MIP search method: dynamic search.
Parallel mode: none, using 1 thread.
Root relaxation solution time = 7218.30 sec. (1546357.31 ticks)

        Nodes                                         Cuts/
   Node  Left     Objective  IInf  Best Integer    Best Bound    ItCnt     Gap

      0     0   1.00000e+37     0                  77675.0000  2334869         

Root node processing (before b&c):
  Real time             = 7220.70 sec. (1547910.59 ticks)
Sequential b&c:
  Real time             =    0.00 sec. (0.00 ticks)
                          ------------
Total (root+branch&cut) = 7220.70 sec. (1547910.59 ticks)
Solution is infeasible.

---------------------
@@@ MIP_time_limit_infeasible
Traceback (most recent call last):
  File "/scratch/scherif/DiverseSAT-journal_sup/DiverseSAT_Supplementary_Experiments/experiment-1/cplex/jobs/../solvers/CPLEX-BIN.py", line 132, in <module>
    print(f">>> Benchmark {os.path.basename(cnf_file)} k {k} OPT {int(prob.solution.get_objective_value())}"
  File "/users/scherif/.local/lib/python3.9/site-packages/cplex/_internal/_subinterfaces.py", line 7211, in get_objective_value
    return CPX_PROC.getobjval(self._env._e, self._cplex._lp)
  File "/users/scherif/.local/lib/python3.9/site-packages/cplex/_internal/_procedural.py", line 2055, in getobjval
    check_status(env, status)
  File "/users/scherif/.local/lib/python3.9/site-packages/cplex/_internal/_procedural.py", line 249, in __call__
    raise CplexSolverError(error_string, env, status)
cplex.exceptions.errors.CplexSolverError: CPLEX Error  1217: No solution exists.
